32      4       
17      19      15      17      
0       0       0       0       0       3       2       3       4       
8       8       7       7       17      4       5       7       9       10      
6       6       3       1       10      2       5       9       
9       1       1       10      1       2       5       9       
8       1       5       4       3       1       6       
9       6       8       7       1       1       8       
2       2       8       2       1       1       8       
4       6       7       11      1       2       11      18      
5       1       1       1       1       2       11      18      
9       10      3       1       1       2       11      18      
10      1       8       1       6       3       12      17      20      
8       3       1       1       2       2       13      14      
9       1       1       3       1       2       15      19      
8       6       1       1       1       2       16      19      
6       1       5       1       6       1       16      
6       1       7       1       2       2       21      22      
10      1       5       7       4       2       23      25      
2       2       1       6       5       1       19      
7       1       6       7       1       2       24      25      
8       7       8       2       5       2       24      25      
2       1       1       4       7       1       23      
1       2       11      1       1       2       25      26      
2       1       6       7       3       1       24      
6       6       1       1       6       3       26      27      31      
9       1       5       8       13      3       27      28      31      
6       12      8       2       12      2       28      30      
6       11      1       1       1       2       29      30      
3       10      10      7       1       1       29      
8       2       10      1       6       1       32      
9       12      1       6       4       1       32      
1       5       3       1       5       1       32      
0       0       0       0       0       0       
